set S :=
323   263   513   98    344   456   284   505   354   264   412
211   646   38    209   179   175   58    571   662   45
408   400   210   532   531   418   564   270   636   95;


param lambda:=557;